950 686
12 228
32 21
1 208
3 45
1 17
1 23
1 11
1 1
1 11
1 6
1 3
1 7
1 1
1 1
1 14
4 4
3 3
1 10
2 21
1 10
1 13
1 10
1 1
1 2
1 3
1 2
1 1
1 1
5 27
1 25
1 7
29 56
4 168
3 159
1 46
1 60
1 2
1 52
2 20
2 2
1 34
1 52
1 1
1 5
3 27
1 14
2 26
1 1
1 23
2 25
1 2
1 3
1 3
1 22
3 1
1 3
4 3
2 1
1 1
2 17
3 41
2 25
1 17
1 2
1 1
1 8
2 31
1 18
1 9
1 11
1 3
2 34
2 3
11 233
24 4
2 2
1 3
1 1
1 2
11 1
6 2
9 2
5 3
7 1
16 1
1 1
24 1
12 1
2 2
1 1
15 2
35 26
1 13
1 45
1 2
2 1
1 1
1 21
1 6
1 17
1 3
2 25
2 12
2 3
1 1
1 15
1 7
1 2
2 7
2 3
3 20
22 42
10 11
2 7
12 7
24 1
3 14
3 3
1 1
5 1
1 2
2 4
2 4
3 4
5 2
1 7
3 6
1 10
7 2
7 2
2 6
9 2
9 1
2 3
1 1
1 1
1 1
1 1
1 1
1 1
6 32
5 1
8 6
14 1
1 1
2 1
20 1
4 4
8 3
1 3
4 2
1 1
3 1
8 1
6 1
4 1
4 1
15 1
1 2
1 1
6 1
9 4
2 4
10 2
11 1
3 1
25 1
14 3
20 7
1 1
20 1
1 1
12 2
5 3
1 2
2 1
1 1
15 2
4 2
1 1
4 1
5 1
855 175
6 20
4 30
67 45
42 63
9 53
6 4
5 2
3 5
6 1
3 4
8 4
10 6
4 1
1 1
1 1
1 1
4 1
4 7
19 4
1 4
2 2
2 1
9 1
3 2
5 1
3 1
2 1
1 1
1 1
2 1
4 1
5 1
2 2
1 1
2 1
5 2
4 1
7 1
9 1
2 1
8 2
5 1
7 1
3 1
21 1
3 1
1 1
1 1
7 1
8 1
17 1
1 1
119 56
12 1
2 3
2 3
1 3
2 3
1 4
1 1
1 1
15 6
1 6
1 1
1 1
1 1
84 4
40 2
5 1
5 1
2 1
2 1
40 2
42 3
92 3
76 1
103 6
10 1
50 1
21 1
35 1
9 1
10 1
119 35
18 33
2 21
2 50
2 1
1 5
1 29
1 7
1 31
1 4
1 1
2 2
2 2
40 31
39 28
53 4
2 9
1 7
1 4
2 3
1 1
1 3
2 2
1 2
1 1
1 2
1 1
1 4
5 3
2 5
1 1
1 4
2 1
1 4
1 2
1 1
2 2
1 4
2 1
1 1
1 2
1 1
3 1
3 1
3 1
3 1
2 9
2 2
4 2
4 9
4 1
10 7
11 7
10 8
19 7
70 1
78 1
2 1
18 1
5 3
41 7
25 1
2 1
13 1
9 2
6 1
15 2
1 4
21 2
8 1
1 2
16 1
5 1
6 1
31 2
1 1
1 1
2 1
1 1
1 1
1 1
11 2
27 2
22 1
10 1
14 1
7 1
38 2
25 1
1 2
9 1
6 1
18 1
25 1
1 1
75 4
9 3
69 1
9 2
7 1
4 1
5 1
5 2
84 23
42 11
2 23
4 11
2 14
3 1
1 3
1 1
1 2
1 3
1 1
1 2
3 4
1 1
1 2
1 1
2 3
2 2
1 1
1 1
1 1
4 4
3 2
3 1
4 3
6 5
5 18
2 13
3 15
1 3
1 2
1 2
1 1
3 2
1 3
1 4
6 2
4 2
8 3
7 1
3 1
1 6
2 4
2 2
2 2
3 2
1 3
1 2
1 2
30 25
14 21
6 1
1 3
1 10
1 6
1 4
1 1
1 1
1 2
3 1
3 1
2 2
1 2
4 4
3 2
1 1
3 1
1 1
1 1
1 4
1 5
3 3
2 8
1 1
2 1
1 1
3 1
1 1
1 6
1 4
2 2
1 2
1 1
1 1
2 1
1 3
1 3
1 1
1 2
1 1
2 1
2 1
2 2
2 1
1 3
1 1
1 1
1 2
1 1
4 1
3 3
9 4
6 1
3 1
6 7
2 1
2 1
2 1
10 2
25 1
14 8
11 6
2 2
6 2
3 2
9 2
7 1
2 1
2 1
4 1
7 2
4 1
3 5
7 2
10 1
1 1
2 2
2 1
3 1
1 1
3 1
13 1
6 1
6 1
7 1
5 1
12 1
39 12
5 10
8 15
3 19
2 1
3 2
2 2
1 2
1 1
4 10
1 6
2 2
1 1
1 2
1 2
1 2
1 2
3 2
2 1
1 1
4 2
7 4
5 6
5 1
3 1
1 1
2 1
2 1
4 1
4 2
40 88
98 68
1 48
1 54
1 9
1 4
1 41
1 1
1 3
1 3
14 19
80 17
5 10
1 3
4 1
2 1
2 1
1 1
12 8
53 4
15 2
5 7
5 5
3 3
2 6
2 1
2 2
13 7
3 3
4 2
5 1
14 1
64 4
5 1
2 2
2 2
2 1
57 1
10 1
63 1
2 1
2 8
72 3
1 2
3 3
6 3
1 1
2 1
1 1
1 1
6 1
1 2
3 1
9 1
2 1
46 2
6 2
15 1
15 2
1 1
2 1
1 1
2 1
15 1
2 1
17 1
5 2
8 1
13 1
17 2
6 2
8 1
2 1
3 1
10 2
1 2
452 17
253 28
160 7
72 8
54 58
9 35
8 29
1 47
1 4
5 4
2 21
1 4
1 8
1 2
1 1
1 1
4 7
4 1
4 8
41 69
10 8
5 1
1 2
5 2
1 1
1 1
2 1
22 2
32 7
22 2
4 2
5 1
7 1
2 1
5 1
2 1
2 1
17 1
26 1
18 1
1 1
40 1
55 1
5 1
3 1
6 1
4 1
2 1
219 45
10 27
2 7
37 15
5 1
13 6
9 16
4 3
1 2
3 2
1 2
1 2
4 1
1 1
6 2
2 6
1 10
1 5
2 1
1 2
1 4
2 9
2 2
1 1
1 5
1 1
1 3
4 15
3 2
9 12
1 1
5 4
1 1
2 1
2 2
1 1
1 1
3 1
2 1
4 3
2 1
3 3
12 4
11 1
1 1
5 1
3 1
4 2
3 2
3 2
3 5
3 4
1 4
1 1
2 1
2 4
5 9
5 7
1 1
7 4
2 7
1 3
2 5
2 3
3 1
1 1
3 1
6 1
1 2
1 1
1 14
11 1
4 1
1 1
6 13
4 2
1 2
2 2
1 2
3 2
9 2
15 2
1 4
3 1
46 1
14 4
2 9
1 8
1 10
1 3
1 3
1 1
1 4
1 3
1 5
3 12
1 2
1 5
1 3
1 15
1 11
1 8
14 6
2 2
1 2
17 2
7 4
61 2
3 13
2 2
2 4
2 4
5 1
3 3
1 16
1 1
1 9
3 5
1 5
1 2
1 1
5 5
4 2
1 1
1 1
34 5
23 24
5 16
4 12
7 3
1 4
1 5
1 4
1 5
4 6
2 1
3 3
2 2
7 3
7 3
2 1
2 1
14 4
20 27
8 1
16 1
22 1
48 3
3 15
1 4
2 6
1 8
1 1
1 1
2 1
3 20
1 8
1 4
1 6
1 3
1 1
40 11
26 3
3 6
3 5
7 5
6 1
5 1
2 1
11 1
6 1
2 1
2 1
18 4
3 1
1 2
1 1
1 1
1 1
1 2
8 2
14 1
1 2
7 2
15 1
17 2
5 2
1 4
1 1
1 1
8 2
13 4
1 4
11 1
1 1
9 1
5 1
1 1
17 2
2 3
1 4
6 4
6 1
4 2
1 2
2 1
1 1
4 1
97 33
130 14
57 8
6 9
2 3
1 10
2 1
2 1
1 1
1 1
1 4
1 3
1 1
1 5
1 6
1 3
2 3
4 4
3 9
1 1
2 1
1 1
2 1
3 1
4 1
2 1
6 2
1 6
1 4
1 1
60 14
8 18
5 2
1 1
2 5
5 1
5 1
1 1
4 4
3 3
2 2
2 1
32 2
125 24
23 8
15 13
3 2
7 6
9 4
1 2
1 1
1 1
8 3
2 1
1 2
1 1
2 1
33 1
4 20
1 11
3 5
4 2
4 5
2 2
2 18
1 1
1 1
6 1
1 1
1 1
35 2
3 4
1 1
1 3
2 3
1 3
4 2
1 2
1 2
53 26
45 9
3 2
28 26
55 14
4 11
1 1
1 4
2 5
1 2
1 7
1 6
1 2
1 7
1 3
1 8
3 11
1 3
1 5
1 10
1 1
1 1
1 5
2 8
1 1
10 9
10 1
5 1
1 1
1 1
3 1
2 1
6 2
2 8
5 2
1 2
7 1
1 1
1 1
1 1
9 1
1 1
33 5
12 15
3 14
5 12
5 3
5 15
5 15
4 1
1 1
1 1
2 1
2 1
1 1
5 1
9 5
1 5
1 7
1 2
1 1
15 3
13 1
3 1
3 1
1 1
2 1
8 2
22 2
1 1
26 11
4 2
1 11
1 1
2 1
3 1
1 3
4 6
4 1
2 7
2 3
1 2
1 1
1 1
2 1
1 4
1 2
5 1
2 1
47 8
114 1
174 1
367 19
66 58
44 17
66 16
3 12
2 4
2 4
1 3
5 2
2 1
3 2
1 2
2 1
2 1
37 5
51 6
11 9
4 3
6 1
4 1
1 1
1 1
5 1
5 1
1 1
15 2
1 1
1 1
1 4
6 1
1 1
16 1
15 3
9 7
3 7
1 1
2 1
11 1
1 3
1 4
68 8
8 13
27 2
3 4
1 9
4 2
2 1
1 2
1 3
1 2
1 3
1 1
2 3
3 1
1 2
1 1
1 1
1 5
6 7
3 1
5 3
6 5
2 9
1 3
1 9
4 5
1 4
1 1
3 2
2 1
1 1
1 1
1 1
1 1
2 1
5 4
1 3
6 3
30 1
5 1
2 4
37 2
3 2
2 1
2 2
1 1
1 1
2 1
1 1
41 2
79 9
14 18
5 17
24 1
22 1
81 8
18 1
3 2
2 9
1 2
1 4
1 2
1 1
56 4
29 2
1 1
14 2
1 2
1 1
1 1
1 1
5 2
10 2
1 1
1 1
6 1
4 1
9 1
5 3
3 3
2 2
2 1
1 1
1 1
1 1
1 1
5 3
1 4
2 3
2 1
2 1
9 2
1 1
4 4
2 2
1 2
1 2
1 3
3 1
4 1
8 1
51 2
25 2
17 3
7 1
2 3
7 3
1 2
1 1
2 1
7 1
2 1
12 1
4 1
2 1
7 1
1 1
23 1
86 4
11 1
1 3
9 1
7 2
7 1
6 1
1 2
1 1
90 12
7 8
4 2
1 3
1 3
1 1
11 7
77 11
21 1
4 9
12 13
11 1
1 1
8 1
15 2
9 1
1 3
10 3
7 2
2 2
1 1
1 1
54 68
117 64
1 29
2 33
4 21
2 8
1 13
3 8
2 3
1 5
1 2
6 7
1 21
1 12
1 1
7 4
1 2
1 33
1 4
1 32
2 11
9 36
5 11
78 7
22 3
25 4
2 3
16 1
1 2
18 1
8 1
1 1
23 1
1 1
3 1
17 4
6 1
4 3
1 3
88 65
375 15
351 56
127 31
12 15
41 4
1 2
5 3
1 1
3 1
1 1
1 1
1 1
5 4
6 1
28 4
15 2
2 4
2 3
2 1
17 3
1 1
1 1
1 1
1 1
5 2
11 1
1 1
7 1
2 1
1 1
3 1
2 1
17 2
1 1
1 1
1 1
1 1
3 2
27 2
11 1
12 5
2 2
1 2
2 2
1 3
2 2
1 1
1 1
1 1
1 1
3 1
3 3
7 4
10 4
1 4
1 1
1 1
7 1
13 1
7 9
4 1
3 9
2 3
6 9
3 4
1 2
1 3
1 1
2 1
1 3
1 1
1 1
5 1
3 1
5 3
6 6
15 2
1 2
16 3
10 1
26 2
1 1
2 8
1 2
2 4
2 1
2 1
1 4
1 3
2 4
2 2
2 3
37 6
13 3
6 3
45 2
10 3
6 1
71 9
14 1
44 6
46 11
7 4
3 3
1 1
1 1
10 2
1 3
1 1
1 2
15 4
31 2
4 1
6 1
1 2
3 2
4 2
3 3
6 2
2 1
4 1
6 2
5 2
11 1
39 2
5 1
2 2
1 1
1 1
15 2
17 2
7 1
4 2
5 1
2 1
14 3
78 16
13 2
7 1
3 1
18 1
94 1
2 1
3 1
1 1
1 2
1 1
1 1
3 2
6 2
1 2
82 21
3 4
4 2
92 1
11 1
32 1
17 1
32 1
8 1
84 1
2 1
16 1
12 1
1 1
1 1
1 1
13 1
13 1
13 1
11 4
32 1
20 2
26 1
22 7
3 9
1 2
1 1
3 3
2 1
1 1
1 1
1 1
2 3
2 3
2 1
2 1
19 3
7 2
8 8
36 3
6 9
8 1
7 1
5 1
2 1
2 1
8 5
2 3
2 3
1 4
3 4
2 1
1 1
1 1
7 2
1 1
8 1
1 1
6 1
1 1
5 1
3 1
84 3
14 6
2 5
2 1
2 2
4 5
1 1
1 4
2 6
12 2
4 3
1 1
1 2
1 1
4 2
1 1
3 1
1 1
2 1
1 1
2 4
8 2
2 1
4 4
11 5
1 9
3 1
1 3
9 4
1 1
12 1
7 1
9 1
1 3
1 4
1 1
2 5
2 7
10 4
1 7
1 2
5 12
106 13
107 1
3 1
113 1
1 1
62 1
111 11
223 21
141 8
2 2
109 1
6 1
101 1
217 3
179 7
10 1
3 1
2 2
6 1
8 1
1 1
1 1
1 1
2 1
5 1
7 1
8 1
17 2
2 2
1 1
159 2
19 3
11 2
5 1
5 1
2 1
2 1
13 1
15 2
2 2
20 1
16 1
161 2
11 5
190 1
2 3
13 2
3 2
1 2
1 1
1 3
12 2
1 1
1 1
3 1
4 1
2 2
9 3
8 3
4 1
4 1
4 1
5 1
5 2
1 1
6 1
1 1
45 6
181 18
10 6
58 1
122 1
60 1
84 1
394 4
17 2
34 1
21 3
38 2
7 2
42 1
18 1
301 1
109 1
15 1
49 1
32 1
312 2
47 1
123 1
4 1
56 1
17 1
64 6
459 3
3 20
5 14
4 6
1 2
1 2
3 1
1 1
3 1
2 1
1 1
2 5
1 1
2 1
1 1
3 1
1 1
1 1
2 1
1 1
4 1
6 2
6 3
1 3
2 2
1 3
1 1
6 1
4 4
1 2
7 2
2 2
1 4
1 1
7 2
2 4
1 4
2 2
1 1
1 1
4 1
3 2
1 1
3 1
1 1
2 1
251 22
145 19
49 10
12 8
8 6
4 4
1 5
1 1
4 1
1 1
1 2
2 1
3 1
9 5
7 5
6 1
13 3
1 3
2 1
3 1
2 1
64 7
2 1
7 5
1 2
8 2
1 2
10 2
62 5
9 4
4 1
3 1
53 1
7 2
43 1
6 1
21 1
21 1
87 16
373 19
9 1
2 12
1 14
1 13
1 2
1 4
1 2
2 1
1 1
8 14
3 2
2 2
2 2
9 4
4 2
1 2
3 2
216 1
97 2
146 2
900 5
56 2
21 16
20 9
2 9
1 7
1 3
1 16
2 8
1 1
2 9
1 2
1 5
1 3
1 4
20 34
27 14
52 12
7 1
3 23
6 8
2 3
3 9
2 8
1 15
1 6
1 2
7 4
4 10
2 8
2 1
4 1
2 8
1 13
1 2
1 1
1 2
1 1
2 1
2 6
5 24
6 2
1 2
2 2
1 1
1 1
10 2
3 1
1 1
4 1
4 1
2 1
2 1
1 1
8 15
2 15
4 5
1 17
3 9
2 1
1 1
1 2
1 6
3 4
4 5
4 1
4 13
2 34
2 11
3 2
3 15
1 13
2 1
1 1
1 2
1 2
1 1
2 2
2 3
4 2
2 7
3 19
3 11
4 2
2 4
2 6
2 9
6 15
13 14
1 12
1 35
1 1
1 13
1 22
1 10
1 1
1 5
1 8
1 1
1 1
8 4
1 5
5 5
1 5
4 10
2 2
3 3
1 2
1 2
1 2
2 1
1 1
2 1
1 1
1 1
5 12
1 1
1 10
1 3
1 1
1 1
6 8
8 1
1 8
1 2
1 8
4 14
4 4
4 4
2 4
8 10
1 9
1 1
64 17
2 25
2 2
2 7
2 6
1 4
1 5
1 1
1 1
1 1
1 1
3 1
1 1
4 4
1 4
3 2
3 4
1 1
2 2
1 1
1 1
4 7
1 1
1 1
1 1
4 1
3 1
5 11
2 11
2 1
4 3
1 1
1 1
3 3
1 1
1 1
2 1
2 1
3 1
3 2
1 1
1 1
1 1
1 1
1 1
1 1
1 1
1 1
1 1
2 1
3 3
1 4
1 2
1 2
4 4
2 3
7 6
3 5
1 1
1 4
1 3
1 1
1 1
1 1
3 2
1 2
2 2
2 2
721 19
148 52
94 28
18 2
154 1
9 1
3 1
1 1
2 1
1 1
7 2
1 1
6 1
1 2
5 1
5 1
30 1
67 2
20 1
138 2
18 2
165 1
77 1
38 5
61 1
3 2
84 2
14 2
64 2
128 2
30 2
5 1
1 1
1 1
4 1
1 1
77 2
30 3
69 4
2 1
161 1
